;symbolic execution tree
(push)
(assert (le x1 java.lang.Integer))
(check-sat)
(push)
(assert (le x0 weka.core.Queue_currencysign_QueueNode))
(check-sat)
(push)
(assert (le x8 weka.core.Instances))
(check-sat)
(pop)
(push)
(assert (not (le x8 weka.core.Instances)))
(check-sat)
(pop)
(pop)
(push)
(assert (not (le x0 weka.core.Queue_currencysign_QueueNode)))
(check-sat)
(pop)
(push)
(assert (le x6 weka.core.converters.ConverterUtils_currencysign_DataSource))
(check-sat)
(pop)
(push)
(assert (not (le x6 weka.core.converters.ConverterUtils_currencysign_DataSource)))
(check-sat)
(push)
(assert (le x3 java.lang.String))
(check-sat)
(pop)
(push)
(assert (not (le x3 java.lang.String)))
(check-sat)
(push)
(assert (le x12 java.lang.String))
(check-sat)
(pop)
(push)
(assert (not (le x12 java.lang.String)))
(check-sat)
(push)
(assert (le x9 java.util.Vector))
(check-sat)
(pop)
(push)
(assert (not (le x9 java.util.Vector)))
(check-sat)
(pop)
(push)
(assert (le x3 java.lang.String))
(check-sat)
(pop)
(push)
(assert (not (le x3 java.lang.String)))
(check-sat)
(pop)
(push)
(assert (le x6 weka.core.converters.ConverterUtils_currencysign_DataSource))
(check-sat)
(pop)
(push)
(assert (not (le x6 weka.core.converters.ConverterUtils_currencysign_DataSource)))
(check-sat)
(pop)
(pop)
(push)
(assert (le x5 java.lang.Object))
(check-sat)
(pop)
(push)
(assert (not (le x5 java.lang.Object)))
(check-sat)
(pop)
(push)
(assert (le x7 java.lang.String))
(check-sat)
(pop)
(push)
(assert (not (le x7 java.lang.String)))
(check-sat)
(pop)
(pop)
(push)
(assert (le x0 java.util.Vector))
(check-sat)
(pop)
(push)
(assert (not (le x0 java.util.Vector)))
(check-sat)
(push)
(assert (le x2 java.lang.Boolean))
(check-sat)
(pop)
(push)
(assert (not (le x2 java.lang.Boolean)))
(check-sat)
(pop)
(push)
(assert (le x4 weka.core.Instance))
(check-sat)
(push)
(assert (le x4 weka.core.Instance))
(check-sat)
(pop)
(push)
(assert (not (le x4 weka.core.Instance)))
(check-sat)
(pop)
(push)
(assert (le x14 java.lang.Object))
(check-sat)
(pop)
(push)
(assert (not (le x14 java.lang.Object)))
(check-sat)
(pop)
(pop)
(push)
(assert (not (le x4 weka.core.Instance)))
(check-sat)
(pop)
(push)
(assert (le x7 java.util.Vector))
(check-sat)
(pop)
(push)
(assert (not (le x7 java.util.Vector)))
(check-sat)
(push)
(assert (le x15 weka.core.AttributeLocator))
(check-sat)
(pop)
(push)
(assert (not (le x15 weka.core.AttributeLocator)))
(check-sat)
(pop)
(push)
(assert (le x10 weka.core.Instance))
(check-sat)
(pop)
(push)
(assert (not (le x10 weka.core.Instance)))
(check-sat)
(pop)
(push)
(assert (le x10 weka.core.Instance))
(check-sat)
(pop)
(push)
(assert (not (le x10 weka.core.Instance)))
(check-sat)
(pop)
(push)
(assert (le x3 java.lang.Boolean))
(check-sat)
(pop)
(push)
(assert (not (le x3 java.lang.Boolean)))
(check-sat)
(pop)
(pop)
(pop)
(pop)
(push)
(assert (le x3 java.util.Properties))
(check-sat)
(pop)
(push)
(assert (not (le x3 java.util.Properties)))
(check-sat)
(push)
(assert (le x8 weka.core.ProtectedProperties))
(check-sat)
(pop)
(push)
(assert (not (le x8 weka.core.ProtectedProperties)))
(check-sat)
(push)
(assert (le x6 weka.core.Instance))
(check-sat)
(pop)
(push)
(assert (not (le x6 weka.core.Instance)))
(check-sat)
(push)
(assert (le x7 weka.classifiers.trees.j48.Distribution))
(check-sat)
(pop)
(push)
(assert (not (le x7 weka.classifiers.trees.j48.Distribution)))
(check-sat)
(pop)
(pop)
(push)
(assert (le x4 java.lang.StringBuilder))
(check-sat)
(pop)
(push)
(assert (not (le x4 java.lang.StringBuilder)))
(check-sat)
(pop)
(push)
(assert (le x12 weka.core.Instance))
(check-sat)
(pop)
(push)
(assert (not (le x12 weka.core.Instance)))
(check-sat)
(pop)
(pop)
(push)
(assert (le x6 weka.core.Instance))
(check-sat)
(pop)
(push)
(assert (not (le x6 weka.core.Instance)))
(check-sat)
(pop)
(pop)
(push)
(assert (le x11 java.lang.Object))
(check-sat)
(push)
(assert (le x8 java.io.InputStream))
(check-sat)
(pop)
(push)
(assert (not (le x8 java.io.InputStream)))
(check-sat)
(push)
(assert (le x13 java.lang.String))
(check-sat)
(pop)
(push)
(assert (not (le x13 java.lang.String)))
(check-sat)
(pop)
(push)
(assert (le x8 java.io.InputStream))
(check-sat)
(pop)
(push)
(assert (not (le x8 java.io.InputStream)))
(check-sat)
(push)
(assert (le x6 java.util.Vector))
(check-sat)
(pop)
(push)
(assert (not (le x6 java.util.Vector)))
(check-sat)
(pop)
(push)
(assert (le x7 java.lang.String))
(check-sat)
(pop)
(push)
(assert (not (le x7 java.lang.String)))
(check-sat)
(pop)
(pop)
(pop)
(push)
(assert (le x5 weka.core.AttributeLocator))
(check-sat)
(push)
(assert (le x1 java.lang.Integer))
(check-sat)
(pop)
(push)
(assert (not (le x1 java.lang.Integer)))
(check-sat)
(pop)
(pop)
(push)
(assert (not (le x5 weka.core.AttributeLocator)))
(check-sat)
(push)
(assert (le x2 weka.core.AttributeLocator))
(check-sat)
(pop)
(push)
(assert (not (le x2 weka.core.AttributeLocator)))
(check-sat)
(pop)
(pop)
(pop)
(push)
(assert (not (le x11 java.lang.Object)))
(check-sat)
(push)
(assert (le x3 java.util.Vector))
(check-sat)
(push)
(assert (le x0 java.io.ObjectOutputStream))
(check-sat)
(pop)
(push)
(assert (not (le x0 java.io.ObjectOutputStream)))
(check-sat)
(pop)
(pop)
(push)
(assert (not (le x3 java.util.Vector)))
(check-sat)
(pop)
(push)
(assert (le x0 weka.core.Instances))
(check-sat)
(push)
(assert (le x3 weka.core.Capabilities_currencysign_Capability))
(check-sat)
(push)
(assert (le x10 java.lang.String))
(check-sat)
(pop)
(push)
(assert (not (le x10 java.lang.String)))
(check-sat)
(pop)
(pop)
(push)
(assert (not (le x3 weka.core.Capabilities_currencysign_Capability)))
(check-sat)
(push)
(assert (le x5 java.lang.Object))
(check-sat)
(pop)
(push)
(assert (not (le x5 java.lang.Object)))
(check-sat)
(pop)
(pop)
(pop)
(push)
(assert (not (le x0 weka.core.Instances)))
(check-sat)
(pop)
(pop)
(push)
(assert (le x9 weka.core.Instance))
(check-sat)
(push)
(assert (le x7 weka.core.AttributeLocator))
(check-sat)
(push)
(assert (le x4 weka.core.Instance))
(check-sat)
(pop)
(push)
(assert (not (le x4 weka.core.Instance)))
(check-sat)
(pop)
(pop)
(push)
(assert (not (le x7 weka.core.AttributeLocator)))
(check-sat)
(pop)
(pop)
(push)
(assert (not (le x9 weka.core.Instance)))
(check-sat)
(push)
(assert (le x15 weka.core.Instances))
(check-sat)
(pop)
(push)
(assert (not (le x15 weka.core.Instances)))
(check-sat)
(pop)
(pop)
(push)
(assert (le x3 java.util.Vector))
(check-sat)
(pop)
(push)
(assert (not (le x3 java.util.Vector)))
(check-sat)
(pop)
(push)
(assert (le x15 weka.core.Instance))
(check-sat)
(pop)
(push)
(assert (not (le x15 weka.core.Instance)))
(check-sat)
(push)
(assert (le x10 java.util.Vector))
(check-sat)
(push)
(assert (le x9 java.lang.String))
(check-sat)
(pop)
(push)
(assert (not (le x9 java.lang.String)))
(check-sat)
(pop)
(pop)
(push)
(assert (not (le x10 java.util.Vector)))
(check-sat)
(push)
(assert (le x2 java.util.Vector))
(check-sat)
(pop)
(push)
(assert (not (le x2 java.util.Vector)))
(check-sat)
(pop)
(pop)
(pop)
(push)
(assert (le x3 java.lang.String))
(check-sat)
(pop)
(push)
(assert (not (le x3 java.lang.String)))
(check-sat)
(push)
(assert (le x14 weka.core.Attribute))
(check-sat)
(push)
(assert (le x11 weka.core.Queue_currencysign_QueueNode))
(check-sat)
(pop)
(push)
(assert (not (le x11 weka.core.Queue_currencysign_QueueNode)))
(check-sat)
(push)
(assert (le x9 weka.core.Instances))
(check-sat)
(pop)
(push)
(assert (not (le x9 weka.core.Instances)))
(check-sat)
(pop)
(pop)
(pop)
(push)
(assert (not (le x14 weka.core.Attribute)))
(check-sat)
(pop)
(pop)
(push)
(assert (le x5 java.lang.String))
(check-sat)
(pop)
(push)
(assert (not (le x5 java.lang.String)))
(check-sat)
(pop)
(push)
(assert (le x9 weka.core.FastVector))
(check-sat)
(pop)
(push)
(assert (not (le x9 weka.core.FastVector)))
(check-sat)
(push)
(assert (le x10 weka.core.Instance))
(check-sat)
(push)
(assert (le x13 weka.core.Instance))
(check-sat)
(pop)
(push)
(assert (not (le x13 weka.core.Instance)))
(check-sat)
(push)
(assert (le x0 weka.core.Queue))
(check-sat)
(pop)
(push)
(assert (not (le x0 weka.core.Queue)))
(check-sat)
(pop)
(pop)
(pop)
(push)
(assert (not (le x10 weka.core.Instance)))
(check-sat)
(pop)
(push)
(assert (le x6 weka.core.Instance))
(check-sat)
(push)
(assert (le x5 weka.core.Queue_currencysign_QueueNode))
(check-sat)
(push)
(assert (le x4 weka.core.Instances))
(check-sat)
(pop)
(push)
(assert (not (le x4 weka.core.Instances)))
(check-sat)
(pop)
(pop)
(push)
(assert (not (le x5 weka.core.Queue_currencysign_QueueNode)))
(check-sat)
(push)
(assert (le x7 weka.core.Instances))
(check-sat)
(pop)
(push)
(assert (not (le x7 weka.core.Instances)))
(check-sat)
(pop)
(pop)
(pop)
(push)
(assert (not (le x6 weka.core.Instance)))
(check-sat)
(pop)
(push)
(assert (le x9 weka.core.FastVector))
(check-sat)
(pop)
(push)
(assert (not (le x9 weka.core.FastVector)))
(check-sat)
(pop)
(pop)
(push)
(assert (le x2 java.lang.String))
(check-sat)
(pop)
(push)
(assert (not (le x2 java.lang.String)))
(check-sat)
(pop)
(push)
(assert (le x12 java.lang.String))
(check-sat)
(pop)
(push)
(assert (not (le x12 java.lang.String)))
(check-sat)
(push)
(assert (le x8 weka.core.Instance))
(check-sat)
(push)
(assert (le x15 java.util.Vector))
(check-sat)
(push)
(assert (le x1 java.lang.Integer))
(check-sat)
(pop)
(push)
(assert (not (le x1 java.lang.Integer)))
(check-sat)
(pop)
(pop)
(push)
(assert (not (le x15 java.util.Vector)))
(check-sat)
(pop)
(pop)
(push)
(assert (not (le x8 weka.core.Instance)))
(check-sat)
(pop)
(push)
(assert (le x1 java.lang.Integer))
(check-sat)
(pop)
(push)
(assert (not (le x1 java.lang.Integer)))
(check-sat)
(pop)
(pop)
(pop)
(push)
(assert (not (le x1 java.lang.Integer)))
(check-sat)
(pop)
